knapPI_9_1000_1000_453
n 1000
c 780087
z 467140
time 1.0
1,477,1001,1
2,132,1001,1
3,894,1001,1
4,55,1000,1
5,272,1000,1
6,41,1001,1
7,567,1000,1
8,999,1000,1
9,472,1001,1
10,508,1001,1
11,736,1001,1
12,788,1000,1
13,312,1001,1
14,122,1001,1
15,435,1001,1
16,147,1001,1
17,1000,1000,1
18,462,1001,1
19,76,1000,1
20,919,1000,1
21,996,1001,1
22,846,1001,1
23,840,1000,1
24,547,1000,1
25,76,1000,1
26,79,1001,1
27,137,1000,1
28,97,1000,1
29,722,1001,1
30,296,1000,1
31,773,1001,1
32,444,1000,1
33,635,1001,1
34,29,1001,1
35,255,1001,1
36,791,1000,1
37,326,1001,1
38,768,1001,1
39,339,1000,1
40,928,1001,1
41,657,1000,1
42,875,1000,1
43,999,1000,1
44,618,1000,1
45,834,1001,1
46,412,1001,1
47,982,1000,1
48,744,1000,1
49,571,1000,1
50,480,1000,1
51,628,1001,1
52,992,1000,1
53,791,1001,1
54,707,1001,1
55,723,1001,1
56,168,1001,1
57,196,1001,1
58,405,1001,1
59,126,1001,1
60,612,1001,1
61,38,1001,1
62,737,1000,1
63,878,1001,1
64,230,1000,1
65,244,1001,1
66,201,1001,1
67,212,1000,1
68,69,1001,1
69,655,1000,1
70,341,1000,1
71,153,1000,1
72,943,1001,1
73,285,1001,1
74,855,1001,1
75,59,1000,1
76,79,1001,1
77,566,1001,1
78,92,1001,1
79,303,1000,1
80,152,1000,1
81,933,1001,1
82,450,1001,1
83,458,1000,1
84,847,1001,1
85,935,1000,1
86,484,1001,1
87,444,1001,1
88,823,1001,1
89,298,1001,1
90,894,1000,1
91,551,1001,1
92,960,1001,1
93,737,1000,1
94,715,1000,1
95,956,1001,1
96,94,1000,1
97,242,1000,1
98,807,1000,1
99,486,1001,1
100,896,1001,1
101,279,1001,1
102,766,1000,1
103,584,1000,1
104,348,1001,1
105,3,1001,1
106,148,1000,1
107,81,1001,1
108,549,1001,1
109,948,1000,1
110,460,1001,1
111,727,1001,1
112,833,1001,1
113,447,1001,1
114,308,1000,1
115,882,1000,1
116,680,1000,1
117,743,1000,1
118,166,1000,1
119,285,1000,1
120,512,1001,1
121,922,1000,1
122,322,1000,1
123,291,1001,1
124,467,1000,1
125,507,1000,1
126,871,1001,1
127,747,1001,1
128,675,1000,1
129,674,1000,1
130,673,1001,1
131,67,1000,1
132,704,1000,1
133,685,1000,1
134,754,1001,1
135,890,1000,1
136,833,1000,1
137,135,1000,1
138,258,1000,1
139,369,1000,1
140,962,1000,1
141,346,1001,1
142,949,1000,1
143,424,1000,1
144,79,1000,1
145,835,1001,1
146,754,1000,1
147,137,1001,1
148,44,1000,1
149,757,1000,1
150,947,1001,1
151,600,1001,1
152,482,1001,1
153,86,1000,1
154,584,1001,1
155,251,1001,1
156,340,1001,1
157,459,1001,1
158,564,1000,1
159,412,1000,1
160,261,1000,1
161,631,1000,1
162,319,1001,1
163,279,1000,1
164,13,1001,1
165,837,1001,1
166,964,1001,1
167,487,1001,1
168,151,1000,1
169,849,1000,1
170,371,1001,1
171,896,1000,1
172,868,1001,1
173,804,1000,1
174,863,1000,1
175,296,1001,1
176,830,1000,1
177,137,1001,1
178,727,1001,1
179,659,1000,1
180,642,1000,1
181,414,1001,1
182,721,1000,1
183,658,1001,1
184,300,1001,1
185,356,1000,1
186,836,1000,1
187,767,1001,1
188,945,1001,1
189,980,1000,1
190,98,1001,1
191,866,1001,1
192,987,1001,1
193,489,1000,1
194,8,1001,1
195,190,1001,1
196,805,1000,1
197,925,1001,1
198,870,1001,1
199,801,1000,1
200,73,1000,1
201,923,1001,1
202,131,1001,1
203,671,1001,1
204,167,1000,1
205,148,1001,1
206,844,1001,1
207,144,1000,1
208,843,1001,1
209,299,1000,1
210,7,1001,1
211,709,1000,1
212,299,1000,1
213,104,1001,1
214,431,1000,1
215,14,1000,1
216,249,1000,1
217,414,1000,1
218,837,1001,1
219,641,1000,1
220,168,1001,1
221,711,1000,1
222,729,1000,1
223,920,1000,1
224,179,1000,1
225,812,1001,1
226,40,1001,1
227,74,1001,1
228,327,1000,1
229,96,1000,1
230,427,1001,1
231,530,1000,1
232,778,1000,1
233,595,1000,1
234,127,1000,1
235,158,1000,1
236,755,1001,1
237,19,1001,1
238,174,1001,1
239,513,1000,1
240,935,1000,1
241,508,1001,1
242,984,1001,1
243,949,1001,1
244,25,1001,1
245,988,1001,1
246,327,1000,1
247,667,1001,1
248,695,1001,1
249,214,1001,1
250,227,1000,1
251,729,1000,1
252,571,1000,1
253,139,1000,1
254,251,1001,1
255,356,1000,1
256,332,1000,1
257,688,1001,1
258,299,1000,1
259,132,1001,1
260,47,1001,1
261,982,1001,1
262,71,1001,1
263,298,1000,1
264,564,1001,1
265,45,1000,1
266,224,1000,1
267,908,1001,1
268,904,1001,1
269,594,1001,1
270,874,1001,1
271,875,1000,1
272,515,1000,1
273,264,1000,1
274,246,1001,1
275,392,1000,1
276,596,1001,1
277,616,1001,1
278,679,1000,1
279,905,1001,1
280,345,1000,1
281,8,1001,1
282,309,1000,1
283,114,1000,1
284,383,1000,1
285,920,1001,1
286,395,1001,1
287,657,1001,1
288,807,1001,1
289,577,1000,1
290,557,1001,1
291,404,1000,1
292,503,1001,1
293,92,1001,1
294,578,1001,1
295,249,1000,1
296,686,1000,1
297,951,1001,1
298,214,1001,1
299,146,1000,1
300,184,1001,1
301,817,1000,1
302,539,1001,1
303,167,1000,1
304,226,1000,1
305,420,1000,1
306,453,1001,1
307,487,1000,1
308,493,1001,1
309,819,1000,1
310,522,1000,1
311,393,1000,1
312,271,1000,1
313,91,1000,1
314,871,1001,1
315,547,1001,1
316,903,1000,1
317,12,1000,1
318,331,1000,1
319,14,1001,1
320,346,1000,1
321,858,1001,1
322,226,1000,1
323,475,1000,1
324,678,1001,1
325,797,1001,1
326,971,1001,1
327,255,1001,1
328,100,1001,1
329,46,1000,1
330,729,1000,1
331,579,1001,1
332,404,1001,1
333,721,1001,1
334,252,1000,1
335,724,1000,1
336,711,1001,1
337,485,1001,1
338,896,1000,1
339,572,1001,1
340,451,1000,1
341,549,1001,1
342,17,1000,1
343,206,1001,1
344,612,1001,1
345,603,1000,1
346,757,1000,1
347,336,1001,1
348,255,1001,1
349,34,1000,1
350,978,1000,1
351,374,1001,1
352,672,1001,1
353,438,1000,1
354,69,1000,1
355,142,1001,1
356,46,1001,1
357,41,1000,1
358,601,1000,1
359,151,1000,1
360,461,1001,1
361,750,1000,1
362,464,1000,1
363,342,1001,1
364,283,1000,1
365,105,1001,1
366,244,1001,1
367,369,1000,1
368,737,1001,1
369,994,1000,1
370,859,1000,1
371,634,1001,1
372,935,1000,1
373,71,1000,1
374,963,1000,1
375,350,1001,1
376,617,1001,1
377,242,1000,1
378,581,1000,1
379,558,1000,1
380,6,1000,1
381,596,1001,1
382,898,1001,1
383,416,1000,1
384,640,1000,1
385,967,1000,1
386,351,1000,1
387,706,1000,1
388,965,1001,1
389,208,1000,1
390,677,1000,1
391,104,1001,1
392,846,1000,1
393,93,1001,1
394,298,1001,1
395,490,1000,1
396,525,1000,1
397,741,1000,1
398,465,1000,1
399,118,1001,1
400,193,1000,1
401,100,1000,1
402,670,1000,1
403,615,1000,1
404,130,1000,1
405,381,1000,1
406,913,1001,1
407,79,1001,1
408,158,1000,1
409,848,1000,1
410,164,1001,1
411,674,1001,1
412,825,1001,1
413,767,1000,1
414,74,1000,1
415,547,1000,1
416,897,1001,1
417,853,1001,1
418,57,1000,1
419,248,1001,1
420,484,1000,1
421,816,1001,1
422,322,1000,1
423,210,1000,1
424,650,1001,1
425,976,1001,1
426,741,1000,1
427,875,1000,1
428,240,1000,1
429,588,1001,1
430,287,1001,1
431,556,1001,1
432,8,1001,1
433,908,1000,1
434,305,1001,1
435,28,1000,1
436,20,1000,1
437,382,1001,1
438,233,1000,1
439,940,1001,1
440,760,1000,1
441,35,1001,1
442,679,1000,1
443,987,1000,1
444,194,1000,1
445,550,1000,1
446,21,1001,1
447,667,1000,1
448,358,1000,1
449,133,1000,1
450,1000,1001,1
451,910,1001,1
452,33,1001,1
453,172,1000,1
454,91,1001,1
455,549,1001,1
456,968,1000,1
457,162,1000,1
458,573,1001,1
459,276,1000,1
460,769,1001,1
461,161,1001,1
462,383,1000,1
463,783,1001,1
464,612,1001,1
465,971,1001,1
466,773,1001,1
467,246,1001,1
468,616,1001,1
469,263,1000,1
470,680,1000,1
471,552,1001,1
472,71,1001,1
473,857,1000,1
474,866,1001,1
475,319,1000,1
476,189,1000,1
477,777,1001,1
478,490,1001,1
479,105,1001,1
480,861,1000,1
481,80,1001,1
482,432,1001,1
483,420,1001,1
484,971,1001,1
485,937,1000,1
486,590,1000,1
487,381,1001,1
488,458,1001,1
489,584,1000,1
490,239,1000,1
491,862,1000,1
492,616,1001,1
493,509,1000,1
494,483,1001,1
495,695,1001,1
496,513,1001,1
497,43,1000,1
498,417,1001,1
499,167,1001,1
500,605,1000,1
501,469,1000,1
502,756,1000,1
503,49,1001,1
504,349,1000,1
505,313,1000,1
506,520,1001,1
507,391,1000,1
508,496,1000,1
509,715,1000,1
510,671,1001,1
511,716,1000,1
512,723,1000,1
513,187,1001,1
514,674,1001,1
515,926,1001,1
516,935,1000,1
517,32,1000,1
518,541,1000,1
519,815,1001,1
520,83,1001,1
521,403,1000,1
522,248,1001,1
523,153,1001,1
524,952,1000,1
525,69,1001,1
526,213,1001,1
527,80,1000,1
528,348,1001,1
529,913,1001,1
530,906,1001,1
531,733,1000,1
532,632,1000,1
533,982,1000,1
534,111,1001,1
535,234,1000,1
536,725,1000,1
537,619,1001,1
538,295,1001,1
539,206,1001,1
540,771,1001,1
541,291,1000,1
542,509,1001,1
543,246,1001,1
544,756,1000,1
545,223,1000,1
546,280,1001,1
547,516,1000,1
548,581,1000,1
549,710,1001,1
550,719,1001,1
551,288,1001,1
552,268,1000,1
553,291,1000,1
554,68,1001,1
555,120,1000,1
556,5,1000,1
557,715,1000,1
558,490,1001,1
559,619,1000,1
560,17,1000,1
561,946,1000,1
562,843,1000,1
563,836,1000,1
564,83,1001,1
565,804,1000,1
566,966,1000,1
567,416,1001,1
568,70,1000,1
569,554,1000,1
570,775,1000,1
571,438,1001,1
572,415,1001,1
573,629,1001,1
574,746,1000,1
575,462,1001,1
576,325,1000,1
577,122,1001,1
578,549,1000,1
579,401,1000,1
580,263,1001,1
581,481,1001,1
582,682,1000,1
583,511,1001,1
584,273,1000,1
585,211,1000,1
586,961,1000,1
587,287,1001,1
588,335,1001,1
589,392,1000,1
590,961,1000,1
591,777,1001,1
592,131,1000,1
593,739,1000,1
594,293,1000,1
595,459,1000,1
596,619,1001,1
597,137,1001,1
598,148,1001,1
599,413,1000,1
600,695,1000,1
601,460,1000,1
602,165,1001,1
603,988,1000,1
604,249,1001,1
605,687,1001,1
606,645,1001,1
607,227,1000,1
608,242,1000,1
609,189,1000,1
610,363,1001,1
611,522,1000,1
612,587,1001,1
613,325,1000,1
614,593,1000,1
615,890,1000,1
616,71,1001,1
617,1000,1001,1
618,516,1000,1
619,701,1000,1
620,593,1000,1
621,439,1000,1
622,901,1001,1
623,864,1000,1
624,249,1000,1
625,79,1001,1
626,746,1001,1
627,267,1001,1
628,760,1000,1
629,857,1001,1
630,819,1001,1
631,257,1000,1
632,937,1001,1
633,960,1000,1
634,566,1001,1
635,133,1001,1
636,429,1001,1
637,360,1001,1
638,772,1000,1
639,224,1000,1
640,93,1001,1
641,63,1001,1
642,84,1001,1
643,522,1001,1
644,813,1001,1
645,800,1001,1
646,591,1000,1
647,548,1000,1
648,924,1001,1
649,838,1000,1
650,626,1000,1
651,398,1000,1
652,259,1001,1
653,46,1000,1
654,341,1001,1
655,764,1001,1
656,975,1000,1
657,597,1000,1
658,35,1001,1
659,93,1001,1
660,429,1001,1
661,244,1001,1
662,433,1001,1
663,949,1001,1
664,170,1001,1
665,997,1000,1
666,933,1001,1
667,864,1001,1
668,605,1001,1
669,893,1000,1
670,707,1001,1
671,524,1000,1
672,28,1001,1
673,38,1001,1
674,370,1001,1
675,997,1001,1
676,226,1000,1
677,446,1000,1
678,486,1000,1
679,995,1000,1
680,653,1001,1
681,583,1000,1
682,812,1001,1
683,3,1000,1
684,190,1000,1
685,341,1001,1
686,153,1000,1
687,51,1000,1
688,49,1000,1
689,374,1000,1
690,289,1001,1
691,639,1000,1
692,495,1001,1
693,494,1000,1
694,716,1001,1
695,264,1000,1
696,593,1001,1
697,332,1000,1
698,23,1001,1
699,697,1001,1
700,440,1000,1
701,895,1001,1
702,677,1000,1
703,168,1001,1
704,843,1001,1
705,936,1001,1
706,157,1001,1
707,658,1001,1
708,504,1000,1
709,803,1000,1
710,694,1000,1
711,398,1001,1
712,516,1000,1
713,610,1001,1
714,726,1001,1
715,628,1001,1
716,437,1001,1
717,563,1000,1
718,905,1001,1
719,80,1000,1
720,484,1001,1
721,631,1001,1
722,334,1001,1
723,430,1001,1
724,200,1001,1
725,760,1000,1
726,302,1000,1
727,560,1000,1
728,362,1000,1
729,856,1000,1
730,460,1000,1
731,178,1000,1
732,202,1001,1
733,772,1000,1
734,761,1000,1
735,470,1000,1
736,284,1001,1
737,417,1001,1
738,833,1001,1
739,489,1000,1
740,985,1000,1
741,698,1000,1
742,632,1001,1
743,794,1000,1
744,178,1001,1
745,771,1000,1
746,375,1000,1
747,428,1001,1
748,525,1000,1
749,160,1001,1
750,547,1001,1
751,72,1001,1
752,46,1001,1
753,246,1000,1
754,724,1000,1
755,79,1001,1
756,264,1000,1
757,140,1000,1
758,817,1001,1
759,63,1001,1
760,664,1000,1
761,575,1000,1
762,670,1001,1
763,261,1001,1
764,702,1000,1
765,143,1000,1
766,689,1001,1
767,965,1000,1
768,104,1001,1
769,520,1001,1
770,258,1001,1
771,395,1001,1
772,848,1001,1
773,837,1001,1
774,173,1001,1
775,469,1000,1
776,790,1001,1
777,918,1000,1
778,671,1001,1
779,877,1001,1
780,643,1001,1
781,132,1000,1
782,452,1001,1
783,515,1000,1
784,109,1001,1
785,547,1000,1
786,543,1000,1
787,930,1000,1
788,854,1001,1
789,174,1000,1
790,151,1000,1
791,842,1001,1
792,559,1001,1
793,855,1001,1
794,828,1001,1
795,34,1001,1
796,120,1000,1
797,80,1001,1
798,949,1001,1
799,771,1001,1
800,999,1000,1
801,308,1000,1
802,796,1001,1
803,776,1000,1
804,111,1001,1
805,485,1001,1
806,842,1000,1
807,194,1000,1
808,591,1001,1
809,222,1000,1
810,335,1000,1
811,21,1000,1
812,504,1001,1
813,68,1000,1
814,588,1001,1
815,691,1001,1
816,554,1001,1
817,326,1000,1
818,320,1001,1
819,35,1000,1
820,399,1001,1
821,140,1001,1
822,670,1000,1
823,120,1001,1
824,647,1001,1
825,460,1000,1
826,416,1001,1
827,177,1000,1
828,733,1000,1
829,944,1001,1
830,49,1001,1
831,390,1000,1
832,254,1001,1
833,116,1001,1
834,728,1000,1
835,242,1000,1
836,850,1001,1
837,248,1000,1
838,960,1000,1
839,804,1001,1
840,982,1000,1
841,559,1001,1
842,288,1001,1
843,421,1001,1
844,38,1001,1
845,857,1001,1
846,242,1000,1
847,302,1000,1
848,677,1001,1
849,96,1001,1
850,567,1001,1
851,258,1001,1
852,930,1001,1
853,627,1001,1
854,294,1001,1
855,736,1001,1
856,988,1001,1
857,849,1000,1
858,248,1001,1
859,214,1001,1
860,698,1001,1
861,390,1001,1
862,408,1000,1
863,557,1001,1
864,74,1000,1
865,7,1001,1
866,373,1000,1
867,42,1001,1
868,403,1000,1
869,161,1000,1
870,101,1001,1
871,275,1000,1
872,162,1000,1
873,246,1001,1
874,542,1000,1
875,163,1001,1
876,513,1000,1
877,650,1000,1
878,213,1001,1
879,170,1001,1
880,961,1001,1
881,240,1000,1
882,992,1001,1
883,866,1001,1
884,522,1001,1
885,228,1001,1
886,3,1001,1
887,83,1001,1
888,744,1001,1
889,637,1000,1
890,423,1000,1
891,96,1000,1
892,443,1000,1
893,371,1000,1
894,601,1001,1
895,687,1001,1
896,190,1000,1
897,450,1000,1
898,214,1000,1
899,360,1000,1
900,846,1000,1
901,312,1000,1
902,832,1001,1
903,918,1000,1
904,721,1000,1
905,905,1000,1
906,285,1000,1
907,111,1001,1
908,783,1000,1
909,193,1001,1
910,258,1000,1
911,350,1000,1
912,767,1000,1
913,385,1000,1
914,961,1001,1
915,62,1000,1
916,731,1000,1
917,776,1000,1
918,280,1000,1
919,595,1001,1
920,217,1001,1
921,198,1001,1
922,218,1000,1
923,346,1001,1
924,173,1000,1
925,698,1001,1
926,758,1001,1
927,783,1001,1
928,166,1000,1
929,620,1001,1
930,107,1001,1
931,154,1001,1
932,782,1001,1
933,311,1000,1
934,530,1000,1
935,29,1000,1
936,119,1000,1
937,318,1000,1
938,416,1001,1
939,233,1001,1
940,718,1001,1
941,784,1001,1
942,396,1000,1
943,229,1000,1
944,793,1001,1
945,214,1001,1
946,132,1001,1
947,511,1001,1
948,152,1000,1
949,174,1001,1
950,538,1001,1
951,701,1000,1
952,448,1000,1
953,439,1000,1
954,412,1000,1
955,778,1000,1
956,356,1001,1
957,839,1001,1
958,228,1001,1
959,336,1001,1
960,97,1000,1
961,606,1000,1
962,888,1001,1
963,459,1001,1
964,235,1000,1
965,716,1001,1
966,991,1001,1
967,734,1001,1
968,201,1000,1
969,605,1000,1
970,620,1001,1
971,661,1001,1
972,521,1000,1
973,386,1001,1
974,481,1000,1
975,590,1000,1
976,803,1001,1
977,57,1000,1
978,613,1001,1
979,767,1000,1
980,397,1001,1
981,943,1001,1
982,680,1001,1
983,209,1000,1
984,8,1001,1
985,858,1001,1
986,859,1001,1
987,466,1000,1
988,190,1001,1
989,461,1000,1
990,477,1001,1
991,758,1001,1
992,111,1000,1
993,243,1000,1
994,495,1000,1
995,796,1000,1
996,995,1000,1
997,806,1001,1
998,433,1001,1
999,598,1000,1
1000,300,1000,1
